; PUSH cw_1 DUP3 SWAP1 DUP2 => DUP2 PUSH cw_1 DUP4
(set-option :produce-proofs true)
; 
(set-info :status unknown)
(declare-fun storage_t ((_ BitVec 256) (_ BitVec 256) (_ BitVec 256) Int (_ BitVec 256)) (_ BitVec 256))
(declare-fun w_1 () (_ BitVec 256))
(declare-fun storage_s ((_ BitVec 256) (_ BitVec 256) (_ BitVec 256) Int (_ BitVec 256)) (_ BitVec 256))
(declare-fun exc_halt_t (Int) Bool)
(declare-fun exc_halt_s (Int) Bool)
(declare-fun stack_t ((_ BitVec 256) (_ BitVec 256) (_ BitVec 256) Int (_ BitVec 6)) (_ BitVec 256))
(declare-fun stack_s ((_ BitVec 256) (_ BitVec 256) (_ BitVec 256) Int (_ BitVec 6)) (_ BitVec 256))
(declare-fun sc_t (Int) (_ BitVec 6))
(declare-fun sc_s (Int) (_ BitVec 6))
(declare-fun used_gas_t ((_ BitVec 256) (_ BitVec 256) (_ BitVec 256) Int) Int)
(declare-fun used_gas_s ((_ BitVec 256) (_ BitVec 256) (_ BitVec 256) Int) Int)
(assert
 (exists ((x_0 (_ BitVec 256)) (x_1 (_ BitVec 256)) )(let (($x1705 (forall ((w (_ BitVec 256)) )(let ((?x1711 (storage_t x_0 x_1 w_1 3 w)))
 (let ((?x7074 (storage_s x_0 x_1 w_1 4 w)))
 (= ?x7074 ?x1711))))
 ))
 (let (($x6783 (exc_halt_t 3)))
 (let (($x7172 (exc_halt_s 4)))
 (let (($x8411 (= $x7172 $x6783)))
 (let (($x11074 (forall ((n (_ BitVec 6)) )(let ((?x10171 (stack_t x_0 x_1 w_1 3 n)))
 (let ((?x10158 (stack_s x_0 x_1 w_1 4 n)))
 (let (($x7721 (= ?x10158 ?x10171)))
 (let ((?x6438 (sc_t 3)))
 (let (($x1457 (bvsle ?x6438 n)))
 (or $x1457 $x7721)))))))
 ))
 (let ((?x6438 (sc_t 3)))
 (let ((?x4305 (sc_s 4)))
 (let (($x6495 (= ?x4305 ?x6438)))
 (let ((?x7787 (used_gas_t x_0 x_1 w_1 0)))
 (let ((?x9999 (used_gas_s x_0 x_1 w_1 0)))
 (let (($x10133 (= ?x9999 ?x7787)))
 (let (($x5107 (forall ((w (_ BitVec 256)) )(let ((?x8060 (storage_t x_0 x_1 w_1 0 w)))
 (let ((?x9463 (storage_s x_0 x_1 w_1 0 w)))
 (= ?x9463 ?x8060))))
 ))
 (let (($x56 (exc_halt_t 0)))
 (let (($x57 (exc_halt_s 0)))
 (let (($x58 (= $x57 $x56)))
 (let (($x2543 (forall ((n (_ BitVec 6)) )(let ((?x6554 (stack_t x_0 x_1 w_1 0 n)))
 (let ((?x3776 (stack_s x_0 x_1 w_1 0 n)))
 (let (($x4301 (= ?x3776 ?x6554)))
 (let ((?x63 (sc_t 0)))
 (let (($x3267 (bvsle ?x63 n)))
 (or $x3267 $x4301)))))))
 ))
 (let ((?x63 (sc_t 0)))
 (let ((?x72 (sc_s 0)))
 (let (($x73 (= ?x72 ?x63)))
 (let (($x8325 (not (= ((_ extract 6 6) (bvadd (_ bv1 7) (concat (_ bv0 1) (sc_t 2)))) (_ bv0 1)))))
 (let (($x5252 (exc_halt_t 2)))
 (let (($x10522 (forall ((w (_ BitVec 256)) )(let ((?x1381 (storage_t x_0 x_1 w_1 2 w)))
 (let ((?x1711 (storage_t x_0 x_1 w_1 3 w)))
 (= ?x1711 ?x1381))))
 ))
 (let (($x6464 (forall ((n (_ BitVec 6)) )(let ((?x8760 (stack_t x_0 x_1 w_1 2 n)))
 (let ((?x10171 (stack_t x_0 x_1 w_1 3 n)))
 (or (bvsle (bvadd (_ bv60 6) (sc_t 2)) n) (= ?x10171 ?x8760)))))
 ))
 (let (($x7159 (= ?x6438 (bvadd (_ bv1 6) (sc_t 2)))))
 (let (($x9988 (= (used_gas_t x_0 x_1 w_1 3) (+ 3 (used_gas_t x_0 x_1 w_1 2)))))
 (let (($x4400 (= (stack_t x_0 x_1 w_1 3 (bvadd (_ bv63 6) (sc_t 2))) (stack_t x_0 x_1 w_1 2 (bvadd (_ bv63 6) (sc_t 2))))))
 (let (($x1269 (= (stack_t x_0 x_1 w_1 3 (bvadd (_ bv62 6) (sc_t 2))) (stack_t x_0 x_1 w_1 2 (bvadd (_ bv62 6) (sc_t 2))))))
 (let (($x2724 (= (stack_t x_0 x_1 w_1 3 (bvadd (_ bv61 6) (sc_t 2))) (stack_t x_0 x_1 w_1 2 (bvadd (_ bv61 6) (sc_t 2))))))
 (let ((?x2714 (sc_t 2)))
 (let ((?x10447 (bvadd (_ bv60 6) ?x2714)))
 (let ((?x9148 (stack_t x_0 x_1 w_1 2 ?x10447)))
 (let (($x1972 (not (= ((_ extract 6 6) (bvadd (_ bv1 7) (concat (_ bv0 1) (sc_t 1)))) (_ bv0 1)))))
 (let (($x3508 (exc_halt_t 1)))
 (let (($x8317 (= $x5252 (or $x3508 $x1972))))
 (let (($x7216 (forall ((w (_ BitVec 256)) )(let ((?x1824 (storage_t x_0 x_1 w_1 1 w)))
 (let ((?x1381 (storage_t x_0 x_1 w_1 2 w)))
 (= ?x1381 ?x1824))))
 ))
 (let (($x1771 (forall ((n (_ BitVec 6)) )(let ((?x4509 (stack_t x_0 x_1 w_1 1 n)))
 (let ((?x8760 (stack_t x_0 x_1 w_1 2 n)))
 (let ((?x8347 (sc_t 1)))
 (let (($x6165 (bvsle ?x8347 n)))
 (or $x6165 (= ?x8760 ?x4509)))))))
 ))
 (let (($x1064 (= ?x2714 (bvadd (_ bv1 6) (sc_t 1)))))
 (let ((?x8138 (used_gas_t x_0 x_1 w_1 2)))
 (let (($x10516 (not (= ((_ extract 6 6) (bvadd (_ bv1 7) (concat (_ bv0 1) ?x63))) (_ bv0 1)))))
 (let (($x4784 (not (bvsle (_ bv0 6) (bvadd (_ bv62 6) ?x63)))))
 (let (($x10279 (forall ((w (_ BitVec 256)) )(let ((?x8060 (storage_t x_0 x_1 w_1 0 w)))
 (let ((?x1824 (storage_t x_0 x_1 w_1 1 w)))
 (= ?x1824 ?x8060))))
 ))
 (let (($x6342 (forall ((n (_ BitVec 6)) )(let ((?x63 (sc_t 0)))
 (let ((?x4145 (bvadd (_ bv62 6) ?x63)))
 (let (($x7366 (bvsle ?x4145 n)))
 (let ((?x6554 (stack_t x_0 x_1 w_1 0 n)))
 (let ((?x4509 (stack_t x_0 x_1 w_1 1 n)))
 (or (= ?x4509 ?x6554) $x7366)))))))
 ))
 (let ((?x8347 (sc_t 1)))
 (let (($x859 (= ?x8347 (bvadd (_ bv1 6) ?x63))))
 (let (($x8689 (= (stack_t x_0 x_1 w_1 1 (bvadd (_ bv63 6) ?x63)) (stack_t x_0 x_1 w_1 0 (bvadd (_ bv63 6) ?x63)))))
 (let ((?x4145 (bvadd (_ bv62 6) ?x63)))
 (let ((?x5268 (stack_t x_0 x_1 w_1 0 ?x4145)))
 (let (($x9139 (not (bvsle (_ bv0 6) (bvadd (_ bv62 6) (sc_s 3))))))
 (let (($x8110 (not (= ((_ extract 6 6) (bvadd (_ bv1 7) (concat (_ bv0 1) (sc_s 3)))) (_ bv0 1)))))
 (let (($x292 (exc_halt_s 3)))
 (let (($x3104 (= $x7172 (or $x292 $x8110 $x9139))))
 (let (($x6285 (forall ((w (_ BitVec 256)) )(let ((?x6586 (storage_s x_0 x_1 w_1 3 w)))
 (let ((?x7074 (storage_s x_0 x_1 w_1 4 w)))
 (= ?x7074 ?x6586))))
 ))
 (let (($x9909 (forall ((n (_ BitVec 6)) )(let ((?x2324 (stack_s x_0 x_1 w_1 3 n)))
 (let ((?x10158 (stack_s x_0 x_1 w_1 4 n)))
 (let ((?x275 (sc_s 3)))
 (let ((?x10732 (bvadd (_ bv62 6) ?x275)))
 (let (($x7977 (bvsle ?x10732 n)))
 (or $x7977 (= ?x10158 ?x2324))))))))
 ))
 (let (($x11709 (= ?x4305 (bvadd (_ bv1 6) (sc_s 3)))))
 (let (($x9588 (= (used_gas_s x_0 x_1 w_1 4) (+ 3 (used_gas_s x_0 x_1 w_1 3)))))
 (let ((?x275 (sc_s 3)))
 (let ((?x6354 (bvadd (_ bv63 6) ?x275)))
 (let ((?x10669 (stack_s x_0 x_1 w_1 3 ?x6354)))
 (let ((?x10732 (bvadd (_ bv62 6) ?x275)))
 (let ((?x9710 (stack_s x_0 x_1 w_1 3 ?x10732)))
 (let (($x2580 (= $x292 (or (exc_halt_s 2) (not (bvsle (_ bv0 6) (bvadd (_ bv62 6) (sc_s 2))))))))
 (let (($x9776 (forall ((w (_ BitVec 256)) )(let ((?x6087 (storage_s x_0 x_1 w_1 2 w)))
 (let ((?x6586 (storage_s x_0 x_1 w_1 3 w)))
 (= ?x6586 ?x6087))))
 ))
 (let (($x4843 (forall ((n (_ BitVec 6)) )(let ((?x218 (sc_s 2)))
 (let ((?x2342 (bvadd (_ bv62 6) ?x218)))
 (let (($x10434 (bvsle ?x2342 n)))
 (let ((?x4797 (stack_s x_0 x_1 w_1 2 n)))
 (let ((?x2324 (stack_s x_0 x_1 w_1 3 n)))
 (or (= ?x2324 ?x4797) $x10434)))))))
 ))
 (let ((?x218 (sc_s 2)))
 (let (($x11200 (= ?x275 ?x218)))
 (let ((?x1783 (used_gas_s x_0 x_1 w_1 3)))
 (let (($x2919 (not (= ((_ extract 6 6) (bvadd (_ bv1 7) (concat (_ bv0 1) (sc_s 1)))) (_ bv0 1)))))
 (let (($x189 (exc_halt_s 1)))
 (let (($x247 (exc_halt_s 2)))
 (let (($x2519 (forall ((w (_ BitVec 256)) )(let ((?x5764 (storage_s x_0 x_1 w_1 1 w)))
 (let ((?x6087 (storage_s x_0 x_1 w_1 2 w)))
 (= ?x6087 ?x5764))))
 ))
 (let (($x8282 (forall ((n (_ BitVec 6)) )(let ((?x10888 (stack_s x_0 x_1 w_1 1 n)))
 (let ((?x4797 (stack_s x_0 x_1 w_1 2 n)))
 (or (bvsle (bvadd (_ bv61 6) (sc_s 1)) n) (= ?x4797 ?x10888)))))
 ))
 (let (($x1224 (= ?x218 (bvadd (_ bv1 6) (sc_s 1)))))
 (let ((?x52 (used_gas_s x_0 x_1 w_1 2)))
 (let (($x5036 (= (stack_s x_0 x_1 w_1 2 (bvadd (_ bv63 6) (sc_s 1))) (stack_s x_0 x_1 w_1 1 (bvadd (_ bv63 6) (sc_s 1))))))
 (let (($x10734 (= (stack_s x_0 x_1 w_1 2 (bvadd (_ bv62 6) (sc_s 1))) (stack_s x_0 x_1 w_1 1 (bvadd (_ bv62 6) (sc_s 1))))))
 (let ((?x154 (sc_s 1)))
 (let ((?x8494 (bvadd (_ bv61 6) ?x154)))
 (let ((?x228 (stack_s x_0 x_1 w_1 1 ?x8494)))
 (let (($x722 (= $x189 (or $x57 (not (= ((_ extract 6 6) (bvadd (_ bv1 7) (concat (_ bv0 1) ?x72))) (_ bv0 1)))))))
 (let (($x1118 (forall ((w (_ BitVec 256)) )(let ((?x9463 (storage_s x_0 x_1 w_1 0 w)))
 (let ((?x5764 (storage_s x_0 x_1 w_1 1 w)))
 (= ?x5764 ?x9463))))
 ))
 (let (($x9961 (forall ((n (_ BitVec 6)) )(let ((?x72 (sc_s 0)))
 (let (($x9281 (bvsle ?x72 n)))
 (let ((?x3776 (stack_s x_0 x_1 w_1 0 n)))
 (let ((?x10888 (stack_s x_0 x_1 w_1 1 n)))
 (or (= ?x10888 ?x3776) $x9281))))))
 ))
 (let (($x7884 (= ?x154 (bvadd (_ bv1 6) ?x72))))
 (let (($x406 (forall ((w (_ BitVec 256)) )(let ((?x9463 (storage_s x_0 x_1 w_1 0 w)))
 (= ?x9463 (_ bv0 256))))
 ))
 (let (($x5086 (= ?x9999 0)))
 (let (($x2751 (not $x57)))
 (let (($x3167 (= (stack_s x_0 x_1 w_1 0 (_ bv1 6)) x_1)))
 (let (($x729 (= (stack_s x_0 x_1 w_1 0 (_ bv0 6)) x_0)))
 (let (($x9983 (= ?x72 (_ bv2 6))))
 (and $x9983 $x729 $x3167 $x2751 $x5086 $x406 (= (stack_s x_0 x_1 w_1 1 ?x72) w_1) (= (used_gas_s x_0 x_1 w_1 1) (+ 3 ?x9999)) $x7884 $x9961 $x1118 $x722 (= (stack_s x_0 x_1 w_1 2 (bvadd (_ bv63 6) ?x218)) ?x228) (= (stack_s x_0 x_1 w_1 2 ?x8494) ?x228) $x10734 $x5036 (= ?x52 (+ 3 (used_gas_s x_0 x_1 w_1 1))) $x1224 $x8282 $x2519 (= $x247 (or $x189 $x2919 (not (bvsle (_ bv0 6) ?x8494)))) (= ?x10669 (stack_s x_0 x_1 w_1 2 (bvadd (_ bv62 6) ?x218))) (= ?x9710 (stack_s x_0 x_1 w_1 2 (bvadd (_ bv63 6) ?x218))) (= ?x1783 (+ 3 ?x52)) $x11200 $x4843 $x9776 $x2580 (= (stack_s x_0 x_1 w_1 4 (bvadd (_ bv63 6) ?x4305)) ?x9710) (= (stack_s x_0 x_1 w_1 4 ?x10732) ?x9710) (= (stack_s x_0 x_1 w_1 4 ?x6354) ?x10669) $x9588 $x11709 $x9909 $x6285 $x3104 (= (stack_t x_0 x_1 w_1 1 (bvadd (_ bv63 6) ?x8347)) ?x5268) (= (stack_t x_0 x_1 w_1 1 ?x4145) ?x5268) $x8689 (= (used_gas_t x_0 x_1 w_1 1) (+ 3 ?x7787)) $x859 $x6342 $x10279 (= $x3508 (or $x56 $x4784 $x10516)) (= (stack_t x_0 x_1 w_1 2 ?x8347) w_1) (= ?x8138 (+ 3 (used_gas_t x_0 x_1 w_1 1))) $x1064 $x1771 $x7216 $x8317 (= (stack_t x_0 x_1 w_1 3 (bvadd (_ bv63 6) ?x6438)) ?x9148) (= (stack_t x_0 x_1 w_1 3 ?x10447) ?x9148) $x2724 $x1269 $x4400 $x9988 $x7159 $x6464 $x10522 (= $x6783 (or (not (bvsle (_ bv0 6) ?x10447)) $x5252 $x8325)) $x73 $x2543 $x58 $x5107 $x10133 (not (and $x6495 $x11074 $x8411 $x1705))))))))))))))))))))))))))))))))))))))))))))))))))))))))))))))))))))))))))))))))))))))))))))
 )
(check-sat)
(get-proof)
